Ru O  Ru O  Ru O  Ru O  Ru O  Ru O  Ru O  Ru O  Ru O  Ru O  Ru O  Ru O  Ru O  Ru O  Ru O  Ru O  Ru O  Ru O  Ru O  Ru O  Ru O  Ru O  Ru O  Ru O 
 1.0000000000000000
    12.6784254776293412    0.0000000000000000    0.0000000000000000
     0.0000000000000000    9.3340242000000000    0.0000000000000000
     0.0000000000000000    0.0000000000000000   31.4450819398650765
 Ru  O   Ru  O   Ru  O   Ru  O   Ru  O   Ru  O   Ru  O   Ru  O   Ru  O   Ru  O   Ru  O   Ru  O   Ru  O   Ru  O   Ru  O   Ru  O   Ru  O   Ru  O   Ru  O   Ru  O   Ru  O   Ru  O   Ru  O   Ru  O  
   2   4   2   4   2   4   2   4   2   4   2   4   2   4   2   4   2   4   2   4   2   4   2   4   2   4   2   4   2   4   2   4   2   4   2   4   2   4   2   4   2   4   2   4   2   4   2   4
Selective dynamics
Cartesian
  3.1696063694073362  1.5556706999999996  0.0000099999999996   F   F   F
  0.0000000000000000  0.0000000000000000  0.0000099999999996   F   F   F
  1.2333435377642670  1.5556706999999996  0.0000099999999996   F   F   F
  5.1058692010504032  1.5556706999999996  0.0000099999999996   F   F   F
  3.1696063694073344  0.0000000000000000  1.2333535377642662   F   F   F
 -0.0000000000000007 -0.0000000000000003  1.9362728316430680   F   F   F
  0.0000000000000000  1.5556706999999996  3.1696163694073363   F   F   F
  3.1696063694073344 -0.0000000000000003  3.1696163694073345   F   F   F
  4.4029499071716032  1.5556706999999996  3.1696163694073345   F   F   F
  1.9362628316430697  1.5556706999999996  3.1696163694073345   F   F   F
 -0.0000000000000007 -0.0000000000000003  4.4029599071716010   F   F   F
  3.1696063694073344 -0.0000000000000003  5.1058792010504028   F   F   F
  3.1696063694073366  1.5556706999999990  6.3392227388146729   T   T   T
 -0.0000000000000021 -0.0000000000000010  6.3392227388146694   T   T   T
  1.2333435377642685  1.5556706999999990  6.3392227388146729   T   T   T
  5.1058692010504032  1.5556706999999990  6.3392227388146694   T   T   T
  3.1696063694073344 -0.0000000000000010  7.5725662765789394   T   T   T
  0.0000000000000000 -0.0000000000000010  8.2754855704577395   T   T   T
  0.0000000000000000  1.5556706999999990  9.5088291082220060   T   T   T
  3.1696063694073375 -0.0000000000000010  9.5088291082220060   T   T   T
  4.4029499071716041  1.5556706999999990  9.5088291082220060   T   T   T
  1.9362628316430697  1.5556706999999990  9.5088291082220060   T   T   T
  0.0000000000000000 -0.0000000000000010 10.7421726459862725   T   T   T
  3.1696063694073344 -0.0000000000000010 11.4450919398650761   T   T   T
  3.1696063694073362  4.6670121000000000  0.0000099999999996   F   F   F
  0.0000000000000000  3.1113414000000001  0.0000099999999996   F   F   F
  1.2333435377642670  4.6670121000000000  0.0000099999999996   F   F   F
  5.1058692010504032  4.6670121000000000  0.0000099999999996   F   F   F
  3.1696063694073344  3.1113414000000001  1.2333535377642662   F   F   F
 -0.0000000000000007  3.1113413999999997  1.9362728316430680   F   F   F
  0.0000000000000000  4.6670121000000000  3.1696163694073363   F   F   F
  3.1696063694073344  3.1113413999999997  3.1696163694073345   F   F   F
  4.4029499071716032  4.6670121000000000  3.1696163694073345   F   F   F
  1.9362628316430697  4.6670121000000000  3.1696163694073345   F   F   F
 -0.0000000000000007  3.1113413999999997  4.4029599071716010   F   F   F
  3.1696063694073344  3.1113413999999997  5.1058792010504028   F   F   F
  3.1696063694073366  4.6670120999999991  6.3392227388146729   T   T   T
 -0.0000000000000021  3.1113413999999993  6.3392227388146694   T   T   T
  1.2333435377642685  4.6670120999999991  6.3392227388146729   T   T   T
  5.1058692010504032  4.6670120999999991  6.3392227388146694   T   T   T
  3.1696063694073344  3.1113413999999993  7.5725662765789394   T   T   T
  0.0000000000000000  3.1113413999999993  8.2754855704577395   T   T   T
  0.0000000000000000  4.6670120999999991  9.5088291082220060   T   T   T
  3.1696063694073375  3.1113413999999993  9.5088291082220060   T   T   T
  4.4029499071716041  4.6670120999999991  9.5088291082220060   T   T   T
  1.9362628316430697  4.6670120999999991  9.5088291082220060   T   T   T
  0.0000000000000000  3.1113413999999993 10.7421726459862725   T   T   T
  3.1696063694073344  3.1113413999999993 11.4450919398650761   T   T   T
  3.1696063694073362  7.7783534999999997  0.0000099999999996   F   F   F
  0.0000000000000000  6.2226828000000003  0.0000099999999996   F   F   F
  1.2333435377642670  7.7783534999999997  0.0000099999999996   F   F   F
  5.1058692010504032  7.7783534999999997  0.0000099999999996   F   F   F
  3.1696063694073344  6.2226828000000003  1.2333535377642662   F   F   F
 -0.0000000000000007  6.2226828000000003  1.9362728316430680   F   F   F
  0.0000000000000000  7.7783534999999997  3.1696163694073363   F   F   F
  3.1696063694073344  6.2226828000000003  3.1696163694073345   F   F   F
  4.4029499071716032  7.7783534999999997  3.1696163694073345   F   F   F
  1.9362628316430697  7.7783534999999997  3.1696163694073345   F   F   F
 -0.0000000000000007  6.2226828000000003  4.4029599071716010   F   F   F
  3.1696063694073344  6.2226828000000003  5.1058792010504028   F   F   F
  3.1696063694073366  7.7783534999999997  6.3392227388146729   T   T   T
 -0.0000000000000021  6.2226827999999994  6.3392227388146694   T   T   T
  1.2333435377642685  7.7783534999999997  6.3392227388146729   T   T   T
  5.1058692010504032  7.7783534999999997  6.3392227388146694   T   T   T
  3.1696063694073344  6.2226827999999994  7.5725662765789394   T   T   T
  0.0000000000000000  6.2226827999999994  8.2754855704577395   T   T   T
  0.0000000000000000  7.7783534999999997  9.5088291082220060   T   T   T
  3.1696063694073375  6.2226827999999994  9.5088291082220060   T   T   T
  4.4029499071716041  7.7783534999999997  9.5088291082220060   T   T   T
  1.9362628316430697  7.7783534999999997  9.5088291082220060   T   T   T
  0.0000000000000000  6.2226827999999994 10.7421726459862725   T   T   T
  3.1696063694073344  6.2226827999999994 11.4450919398650761   T   T   T
  9.5088191082220064  1.5556706999999996  0.0000099999999996   F   F   F
  6.3392127388146706  0.0000000000000000  0.0000099999999996   F   F   F
  7.5725562765789380  1.5556706999999996  0.0000099999999996   F   F   F
 11.4450819398650729  1.5556706999999996  0.0000099999999996   F   F   F
  9.5088191082220046  0.0000000000000000  1.2333535377642662   F   F   F
  6.3392127388146697 -0.0000000000000003  1.9362728316430680   F   F   F
  6.3392127388146706  1.5556706999999996  3.1696163694073363   F   F   F
  9.5088191082220046 -0.0000000000000003  3.1696163694073345   F   F   F
 10.7421626459862729  1.5556706999999996  3.1696163694073345   F   F   F
  8.2754755704577398  1.5556706999999996  3.1696163694073345   F   F   F
  6.3392127388146697 -0.0000000000000003  4.4029599071716010   F   F   F
  9.5088191082220046 -0.0000000000000003  5.1058792010504028   F   F   F
  9.5088191082220064  1.5556706999999990  6.3392227388146729   T   T   T
  6.3392127388146688 -0.0000000000000010  6.3392227388146694   T   T   T
  7.5725562765789389  1.5556706999999990  6.3392227388146729   T   T   T
 11.4450819398650729  1.5556706999999990  6.3392227388146694   T   T   T
  9.5088191082220046 -0.0000000000000010  7.5725662765789394   T   T   T
  6.3392127388146706 -0.0000000000000010  8.2754855704577395   T   T   T
  6.3392127388146706  1.5556706999999990  9.5088291082220060   T   T   T
  9.5088191082220082 -0.0000000000000010  9.5088291082220060   T   T   T
 10.7421626459862747  1.5556706999999990  9.5088291082220060   T   T   T
  8.2754755704577398  1.5556706999999990  9.5088291082220060   T   T   T
  6.3392127388146706 -0.0000000000000010 10.7421726459862725   T   T   T
  9.5088191082220046 -0.0000000000000010 11.4450919398650761   T   T   T
  9.5088191082220064  4.6670121000000000  0.0000099999999996   F   F   F
  6.3392127388146706  3.1113414000000001  0.0000099999999996   F   F   F
  7.5725562765789380  4.6670121000000000  0.0000099999999996   F   F   F
 11.4450819398650729  4.6670121000000000  0.0000099999999996   F   F   F
  9.5088191082220046  3.1113414000000001  1.2333535377642662   F   F   F
  6.3392127388146697  3.1113413999999997  1.9362728316430680   F   F   F
  6.3392127388146706  4.6670121000000000  3.1696163694073363   F   F   F
  9.5088191082220046  3.1113413999999997  3.1696163694073345   F   F   F
 10.7421626459862729  4.6670121000000000  3.1696163694073345   F   F   F
  8.2754755704577398  4.6670121000000000  3.1696163694073345   F   F   F
  6.3392127388146697  3.1113413999999997  4.4029599071716010   F   F   F
  9.5088191082220046  3.1113413999999997  5.1058792010504028   F   F   F
  9.5088191082220064  4.6670120999999991  6.3392227388146729   T   T   T
  6.3392127388146688  3.1113413999999993  6.3392227388146694   T   T   T
  7.5725562765789389  4.6670120999999991  6.3392227388146729   T   T   T
 11.4450819398650729  4.6670120999999991  6.3392227388146694   T   T   T
  9.5088191082220046  3.1113413999999993  7.5725662765789394   T   T   T
  6.3392127388146706  3.1113413999999993  8.2754855704577395   T   T   T
  6.3392127388146706  4.6670120999999991  9.5088291082220060   T   T   T
  9.5088191082220082  3.1113413999999993  9.5088291082220060   T   T   T
 10.7421626459862747  4.6670120999999991  9.5088291082220060   T   T   T
  8.2754755704577398  4.6670120999999991  9.5088291082220060   T   T   T
  6.3392127388146706  3.1113413999999993 10.7421726459862725   T   T   T
  9.5088191082220046  3.1113413999999993 11.4450919398650761   T   T   T
  9.5088191082220064  7.7783534999999997  0.0000099999999996   F   F   F
  6.3392127388146706  6.2226828000000003  0.0000099999999996   F   F   F
  7.5725562765789380  7.7783534999999997  0.0000099999999996   F   F   F
 11.4450819398650729  7.7783534999999997  0.0000099999999996   F   F   F
  9.5088191082220046  6.2226828000000003  1.2333535377642662   F   F   F
  6.3392127388146697  6.2226828000000003  1.9362728316430680   F   F   F
  6.3392127388146706  7.7783534999999997  3.1696163694073363   F   F   F
  9.5088191082220046  6.2226828000000003  3.1696163694073345   F   F   F
 10.7421626459862729  7.7783534999999997  3.1696163694073345   F   F   F
  8.2754755704577398  7.7783534999999997  3.1696163694073345   F   F   F
  6.3392127388146697  6.2226828000000003  4.4029599071716010   F   F   F
  9.5088191082220046  6.2226828000000003  5.1058792010504028   T   T   T
  9.5088191082220064  7.7783534999999997  6.3392227388146729   T   T   T
  6.3392127388146688  6.2226827999999994  6.3392227388146694   T   T   T
  7.5725562765789389  7.7783534999999997  6.3392227388146729   T   T   T
 11.4450819398650729  7.7783534999999997  6.3392227388146694   T   T   T
  9.5088191082220046  6.2226827999999994  7.5725662765789394   T   T   T
  6.3392127388146706  6.2226827999999994  8.2754855704577395   T   T   T
  6.3392127388146706  7.7783534999999997  9.5088291082220060   T   T   T
  9.5088191082220082  6.2226827999999994  9.5088291082220060   T   T   T
 10.7421626459862747  7.7783534999999997  9.5088291082220060   T   T   T
  8.2754755704577398  7.7783534999999997  9.5088291082220060   T   T   T
  6.3392127388146706  6.2226827999999994 10.7421726459862725   T   T   T
  9.5088191082220046  6.2226827999999994 11.4450919398650761   T   T   T
